Instance name: /home/cuong/CLionProjects/uMV-FSTSP/50_dis_rand_ins/v98
Write arg val: 1

drone speed: 1 miles/minute
uav non-eligible customer: 9 11 
Printing tau:
0 10.113 38.3156 38.2981 49.9647 39.844 47.0258 43.9411 45.2649 81.8173 100.686 0 
10.113 0 28.6373 33.0262 44.6928 34.5721 41.7539 54.0541 50.3014 76.5455 95.4145 10.113 
38.3156 28.6373 0 5.78366 27.7913 25.6237 43.3174 82.2567 78.504 47.9082 66.7772 38.3156 
38.2981 33.0262 5.78366 0 22.0077 19.84 37.5337 76.473 72.7204 43.5192 62.3883 38.2981 
49.9647 44.6928 27.7913 22.0077 0 10.1207 15.5261 54.4654 50.7127 31.8526 50.7217 49.9647 
39.844 34.5721 25.6237 19.84 10.1207 0 17.6937 56.633 52.8804 41.9733 60.8424 39.844 
47.0258 41.7539 43.3174 37.5337 15.5261 17.6937 0 38.9393 35.1866 34.7916 53.6606 47.0258 
43.9411 54.0541 82.2567 76.473 54.4654 56.633 38.9393 0 25.1092 61.6617 80.5307 43.9411 
45.2649 50.3014 78.504 72.7204 50.7127 52.8804 35.1866 25.1092 0 39.3571 55.4215 45.2649 
81.8173 76.5455 47.9082 43.5192 31.8526 41.9733 34.7916 61.6617 39.3571 0 18.8691 81.8173 
100.686 95.4145 66.7772 62.3883 50.7217 60.8424 53.6606 80.5307 55.4215 18.8691 0 100.686 
0 0 0 0 0 0 0 0 0 0 0 0 
Printing tau_prime:
0 3.02412 13.5673 13.3246 13.5396 11.0883 12.5399 12.8189 16.0507 21.6962 26.7162 0 
3.02412 0 10.6578 10.5845 11.8515 9.19279 11.7748 14.8667 17.0402 20.5036 25.3583 3.02412 
13.5673 10.6578 0 1.92521 8.51067 6.97437 12.0013 22.1144 21.0332 16.4053 19.949 13.5673 
13.3246 10.5845 1.92521 0 6.60493 5.27682 10.2182 20.8408 19.3712 14.5407 18.2283 13.3246 
13.5396 11.8515 8.51067 6.60493 0 2.74451 4.19008 16.4639 13.5049 8.9669 13.5721 13.5396 
11.0883 9.19279 6.97437 5.27682 2.74451 0 5.06351 15.8987 14.0955 11.6933 16.3099 11.0883 
12.5399 11.7748 12.0013 10.2182 4.19008 5.06351 0 12.5451 9.34194 9.29155 14.4133 12.5399 
12.8189 14.8667 22.1144 20.8408 16.4639 15.8987 12.5451 0 6.73204 19.9502 24.806 12.8189 
16.0507 17.0402 21.0332 19.3712 13.5049 14.0955 9.34194 6.73204 0 14.2427 18.7399 16.0507 
21.6962 20.5036 16.4053 14.5407 8.9669 11.6933 9.29155 19.9502 14.2427 0 5.14347 21.6962 
26.7162 25.3583 19.949 18.2283 13.5721 16.3099 14.4133 24.806 18.7399 5.14347 0 26.7162 
0 0 0 0 0 0 0 0 0 0 0 0 
Version identifier: 22.1.1.0 | 2022-11-28 | 9160aff4d
CPXPARAM_MIP_Tolerances_Integrality              0
Tried aggregator 1 time.
MIP Presolve eliminated 1 rows and 12 columns.
MIP Presolve modified 20 coefficients.
Reduced MIP has 122 rows, 120 columns, and 510 nonzeros.
Reduced MIP has 110 binaries, 0 generals, 0 SOSs, and 0 indicators.
Presolve time = 0.00 sec. (0.27 ticks)
Found incumbent of value 523.489800 after 0.00 sec. (0.75 ticks)
Probing time = 0.00 sec. (0.26 ticks)
Cover probing fixed 0 vars, tightened 10 bounds.
Tried aggregator 1 time.
Detecting symmetries...
MIP Presolve eliminated 10 rows and 0 columns.
MIP Presolve modified 180 coefficients.
Reduced MIP has 112 rows, 120 columns, and 490 nonzeros.
Reduced MIP has 110 binaries, 0 generals, 0 SOSs, and 0 indicators.
Presolve time = 0.00 sec. (0.35 ticks)
Probing time = 0.00 sec. (0.26 ticks)
Clique table members: 67.
MIP emphasis: balance optimality and feasibility.
MIP search method: dynamic search.
Parallel mode: deterministic, using up to 20 threads.
Root relaxation solution time = 0.00 sec. (0.23 ticks)

        Nodes                                         Cuts/
   Node  Left     Objective  IInf  Best Integer    Best Bound    ItCnt     Gap

*     0+    0                          523.4898        0.0000           100.00%
      0     0      180.9838    18      523.4898      180.9838       27   65.43%
*     0+    0                          291.8831      180.9838            37.99%
      0     0      256.8924    18      291.8831      Cuts: 33       44   11.99%
      0     0      256.8924    18      291.8831      Cuts: 28       54   11.99%
      0     0      256.8924    18      291.8831       Cuts: 6       60   11.99%
*     0+    0                          268.1533      256.8924             4.20%
      0     0        cutoff            268.1533      268.1533       60    0.00%
Elapsed time = 0.02 sec. (7.79 ticks, tree = 0.01 MB, solutions = 3)

Clique cuts applied:  3
Implied bound cuts applied:  4
Mixed integer rounding cuts applied:  8
Multi commodity flow cuts applied:  6
Lift and project cuts applied:  2
Gomory fractional cuts applied:  2

Root node processing (before b&c):
  Real time             =    0.02 sec. (7.80 ticks)
Parallel b&c, 20 threads:
  Real time             =    0.00 sec. (0.00 ticks)
  Sync time (average)   =    0.00 sec.
  Wait time (average)   =    0.00 sec.
                          ------------
Total (root+branch&cut) =    0.02 sec. (7.80 ticks)

TSP solution for this instance: 0 1 2 3 5 4 6 9 10 8 7 11 
12
Warmstart X[1][0] == 1
Warmstart X[2][1] == 1
Warmstart X[3][2] == 1
Warmstart X[4][3] == 1
Warmstart X[5][5] == 1
Warmstart X[6][4] == 1
Warmstart X[7][6] == 1
Warmstart X[8][9] == 1
Warmstart X[9][10] == 1
Warmstart X[10][8] == 1
Warmstart X[11][7] == 1
---------------------------------------------
Calculate max stage gap for sortie.... 
Stage gap of 4 with smallest length = 23.1346 violated endurance constraint!
---------------------------------------------
Variable z[1][5] was set to 0.
Variable z[1][6] was set to 0.
Variable z[1][7] was set to 0.
Variable z[1][8] was set to 0.
Variable z[1][9] was set to 0.
Variable z[1][10] was set to 0.
Variable z[1][11] was set to 0.
Variable z[1][12] was set to 0.
Variable z[2][6] was set to 0.
Variable z[2][7] was set to 0.
Variable z[2][8] was set to 0.
Variable z[2][9] was set to 0.
Variable z[2][10] was set to 0.
Variable z[2][11] was set to 0.
Variable z[2][12] was set to 0.
Variable z[3][7] was set to 0.
Variable z[3][8] was set to 0.
Variable z[3][9] was set to 0.
Variable z[3][10] was set to 0.
Variable z[3][11] was set to 0.
Variable z[3][12] was set to 0.
Variable z[4][8] was set to 0.
Variable z[4][9] was set to 0.
Variable z[4][10] was set to 0.
Variable z[4][11] was set to 0.
Variable z[4][12] was set to 0.
Variable z[5][9] was set to 0.
Variable z[5][10] was set to 0.
Variable z[5][11] was set to 0.
Variable z[5][12] was set to 0.
Variable z[6][10] was set to 0.
Variable z[6][11] was set to 0.
Variable z[6][12] was set to 0.
Variable z[7][11] was set to 0.
Variable z[7][12] was set to 0.
Variable z[8][12] was set to 0.
Num constraint added = 5346
Warning:  Output names have been modified due to duplicate names or characters invalid in LP format.
Version identifier: 22.1.1.0 | 2022-11-28 | 9160aff4d
CPXPARAM_TimeLimit                               200
CPXPARAM_MIP_Tolerances_Integrality              0
1 of 1 MIP starts provided solutions.
MIP start 'm1' defined initial solution with objective 268.1533.
Tried aggregator 4 times.
MIP Presolve eliminated 6856 rows and 2240 columns.
MIP Presolve modified 2168 coefficients.
Aggregator did 36 substitutions.
Reduced MIP has 1302 rows, 2500 columns, and 48334 nonzeros.
Reduced MIP has 2479 binaries, 0 generals, 0 SOSs, and 0 indicators.
Presolve time = 0.11 sec. (266.57 ticks)
Probing fixed 226 vars, tightened 0 bounds.
Probing changed sense of 4 constraints.
Probing time = 0.03 sec. (73.50 ticks)
Tried aggregator 2 times.
MIP Presolve eliminated 54 rows and 246 columns.
MIP Presolve modified 473 coefficients.
Aggregator did 11 substitutions.
Reduced MIP has 1221 rows, 2243 columns, and 41516 nonzeros.
Reduced MIP has 2222 binaries, 0 generals, 0 SOSs, and 0 indicators.
Presolve time = 0.03 sec. (67.59 ticks)
Probing time = 0.00 sec. (5.22 ticks)
Tried aggregator 1 time.
Detecting symmetries...
MIP Presolve modified 102 coefficients.
Reduced MIP has 1218 rows, 2243 columns, and 41414 nonzeros.
Reduced MIP has 2222 binaries, 0 generals, 0 SOSs, and 0 indicators.
Presolve time = 0.02 sec. (38.33 ticks)
Probing time = 0.00 sec. (5.24 ticks)
Clique table members: 11005.
MIP emphasis: balance optimality and feasibility.
MIP search method: dynamic search.
Parallel mode: deterministic, using up to 20 threads.
Root relaxation solution time = 0.12 sec. (250.71 ticks)

        Nodes                                         Cuts/
   Node  Left     Objective  IInf  Best Integer    Best Bound    ItCnt     Gap

*     0+    0                          268.1533       10.1130            96.23%
      0     0      175.3767   183      268.1533      175.3767       26   34.60%
      0     0      180.6124   271      268.1533      Cuts: 29     1494   32.65%
      0     0      182.4026   300      268.1533      Cuts: 28     2302   31.98%
      0     0      184.5923   357      268.1533      Cuts: 24     3165   31.16%
      0     0      184.9907   358      268.1533      Cuts: 10     3522   31.01%
      0     0      185.0514   363      268.1533       Cuts: 4     3658   30.99%
Detecting symmetries...
      0     0      185.0704   389      268.1533       Cuts: 3     3721   30.98%
      0     0      185.1413   388      268.1533       Cuts: 6     3877   30.96%
      0     0      185.1906   366      268.1533       Cuts: 2     3983   30.94%
      0     0      185.2260   383      268.1533   ZeroHalf: 1     4115   30.93%
      0     0      185.2649   359      268.1533       Cuts: 5     4215   30.91%
      0     0      185.3049   371      268.1533       Cuts: 5     4325   30.90%
      0     0      185.3058   377      268.1533       Cuts: 3     4354   30.90%
      0     0      185.3058   373      268.1533    Cliques: 2     4365   30.90%
Detecting symmetries...
      0     2      185.3058   373      268.1533      185.3058     4365   30.90%
Elapsed time = 1.34 sec. (2449.86 ticks, tree = 0.02 MB, solutions = 1)
      1     3      201.8639   210      268.1533      185.3079     6185   30.89%
      3     3      186.3606   359      268.1533      185.3079     4938   30.89%
*    25+    6                          263.2555      186.3839            29.20%
     79    11      247.9364    47      263.2555      186.3839    23330   29.20%
    335    21      244.8284   189      263.2555      193.7228    53498   26.41%
    606   134      236.0722   137      263.2555      199.9211    87750   24.06%
    726   172      222.6757   178      263.2555      199.9211   143130   24.06%
*  1209   305      integral     0      261.8608      203.2333   182875   22.39%
   1400   426      233.2279    50      261.8608      203.2333   213191   22.39%
   2118   619      233.6110    67      261.8608      203.3436   247985   22.35%
   2316   655    infeasible            261.8608      203.3436   275369   22.35%
*  2812+  849                          251.6882      203.3436            19.21%

GUB cover cuts applied:  11
Clique cuts applied:  1
Cover cuts applied:  71
Implied bound cuts applied:  43
Flow cuts applied:  1
Mixed integer rounding cuts applied:  3
Zero-half cuts applied:  25
Lift and project cuts applied:  2
Gomory fractional cuts applied:  1

Root node processing (before b&c):
  Real time             =    1.30 sec. (2405.97 ticks)
Parallel b&c, 20 threads:
  Real time             =    2.57 sec. (2934.14 ticks)
  Sync time (average)   =    1.07 sec.
  Wait time (average)   =    0.00 sec.
                          ------------
Total (root+branch&cut) =    3.87 sec. (5340.11 ticks)
Feasible solution found!
Truck nodes:
Stage 1 at customer 0 with arrival time is: 0
Stage 1 at customer 0 with departure time is: 0
Stage 2 at customer 7 with arrival time is: 43.9411
Stage 2 at customer 7 with departure time is: 43.9411
Stage 3 at customer 8 with arrival time is: 69.0503
Stage 3 at customer 8 with departure time is: 69.0503
Stage 4 at customer 10 with arrival time is: 124.472
Stage 4 at customer 10 with departure time is: 124.472
Stage 5 at customer 9 with arrival time is: 143.341
Stage 5 at customer 9 with departure time is: 143.341
Stage 6 at customer 4 with arrival time is: 175.194
Stage 6 at customer 4 with departure time is: 176.194
Stage 7 at customer 5 with arrival time is: 186.314
Stage 7 at customer 5 with departure time is: 187.314
Stage 8 at customer 3 with arrival time is: 207.154
Stage 8 at customer 3 with departure time is: 207.154
Stage 9 at customer 2 with arrival time is: 212.938
Stage 9 at customer 2 with departure time is: 212.938
Stage 10 at customer 1 with arrival time is: 241.575
Stage 10 at customer 1 with departure time is: 241.575
Stage 11 at customer 11 with arrival time is: 251.688
Stage 11 at customer 11 with departure time is: 251.688
Truck arcs:
Arc 1 connecting 0 and 7 with cost 43.9411 
Arc 2 connecting 7 and 8 with cost 25.1092 
Arc 3 connecting 8 and 10 with cost 55.4215 
Arc 4 connecting 10 and 9 with cost 18.8691 
Arc 5 connecting 9 and 4 with cost 31.8526 
Arc 6 connecting 4 and 5 with cost 10.1207 
Arc 7 connecting 5 and 3 with cost 19.84 
Arc 8 connecting 3 and 2 with cost 5.78366 
Arc 9 connecting 2 and 1 with cost 28.6373 
Arc 10 connecting 1 and 11 with cost 10.113 
Customer 6 served by drone.
Drone fly from 4 at stage 6 to serve 6 and then fly back to 5 at stage 7. 
Truck arcs during this sortie: 4--->5
Truck travel time from stage 6 to 7 is: 10.1207
Total drone travel time: 9.25359
Drone arrival time: 185.447
Truck arrival time: 186.314
Truck departure time = max(d/a, t/a) plus (sl/sr): 187.314
Done!
-------------------------Re-calculated objective-----------------------
251.688
------------------------------------------------------------------------
Solve time: 3.874
OBJECTIVE VALUE: 251.688, NUMBER OF SORTIES: 1.
Number of revisit: 0
In write mode
